(set-info :Origin "This instance was generated by: BanditFuzz-- an RL fuzzer for SMT solvers" )
(set-info :Author "Joe Scott, Fed Mora, Vijay Ganesh" )
(set-info :Contact "Joe Scott, joseph.scott@uwaterloo.ca")
(set-logic QF_BV)
(declare-const bool_0 Bool)
(declare-const bool_1 Bool)
(declare-const bool_2 Bool)
(declare-const bool_3 Bool)
(declare-const bool_4 Bool)
(declare-const bv_0 (_ BitVec 32))
(declare-const bv_1 (_ BitVec 32))
(declare-const bv_2 (_ BitVec 32))
(declare-const bv_3 (_ BitVec 32))
(declare-const bv_4 (_ BitVec 32))
(assert (bvslt (bvsdiv (bvsmod bv_1 #x034bbdf0 ) (bvnor bv_4 #xcb210f2c )) (bvxor (bvudiv bv_3 bv_0) (bvlshr #xcbc0a011  bv_4))))
(assert (xor (=> (xor true false) (bvule #x7275bba3  bv_4)) (xor (and bool_0 true) (or bool_4 bool_0))))
(assert (bvugt (bvashr (bvsrem bv_0 #xd5955e3f ) (bvshl #x6a445818  #x2f3d91df )) (bvxor (bvsdiv bv_0 bv_2) (bvlshr bv_2 #x939a379c ))))
(assert (bvule (bvshl (bvadd bv_1 bv_2) (bvor bv_2 #xebbd6457 )) (bvand (bvadd bv_1 #x6a4e3030 ) (bvnor #x53faa83d  bv_2))))
(assert (or (bvsle (bvadd bv_1 #x7446ac3c ) (bvmul #x8168ebed  #xba4c841f )) (xor (or bool_1 true) (bvult bv_2 bv_0))))
(check-sat)
(exit)
